decompose n = 1354
decomposeConnected: n = 1354
greedy decomposition (fill) obtained with 1345 bags and width 5
1229 safe separators found 
the decomposition packed into 1230 bags, separatorWidth = 2, max bag size = 83
greedy decomposition (defect) obtained with 1344 bags and width 5
1229 safe separators found 
the decomposition packed into 1230 bags, separatorWidth = 2, max bag size = 83
greedy decomposition (degree) obtained with 1338 bags and width 5
1228 safe separators found 
the decomposition packed into 1229 bags, separatorWidth = 2, max bag size = 83
flattening
the decomposition flattened into 1345 bags
s td 1345 6 1354
b 1 1 467
b 2 395 396
b 3 394 395
b 4 393 394
b 5 392 393
b 6 467 578
b 7 578 689
b 8 689 800
b 9 800 911
b 10 911 1022
b 11 3 14 1344
b 12 4 5 1354
b 13 5 6 1354
b 14 6 7 1354
b 15 7 8 1354
b 16 8 9 1354
b 17 9 10 1354
b 18 10 11 1354
b 19 11 12 1354
b 20 12 13 1354
b 21 13 15 1354
b 22 14 25 1344
b 23 15 16 1354
b 24 16 17 1354
b 25 17 18 1354
b 26 18 19 1354
b 27 19 20 1354
b 28 20 21 1354
b 29 21 22 1354
b 30 22 23 1354
b 31 25 36 1344
b 32 24 26 27
b 33 28 29 30
b 34 33 34 35
b 35 33 35 37
b 36 36 47 1344
b 37 33 37 38
b 38 33 38 39
b 39 33 39 40
b 40 33 40 41
b 41 33 41 42
b 42 33 42 43
b 43 33 43 44
b 44 33 44 45
b 45 33 45 46
b 46 33 46 48
b 47 47 58 1344
b 48 33 48 49
b 49 33 49 50
b 50 33 50 51
b 51 33 51 52
b 52 33 52 53
b 53 33 53 54
b 54 33 54 55
b 55 33 55 56
b 56 33 56 57
b 57 33 57 59
b 58 58 69 1344
b 59 33 59 60
b 60 33 60 61
b 61 33 61 62
b 62 33 62 63
b 63 33 63 64
b 64 33 64 65
b 65 33 65 66
b 66 33 66 67
b 67 33 67 68
b 68 33 68 70
b 69 69 80 1344
b 70 71 72 73
b 71 71 73 74
b 72 71 74 75
b 73 71 75 76
b 74 71 76 77
b 75 71 77 78
b 76 71 78 79
b 77 71 79 81
b 78 80 91 1344
b 79 71 81 82
b 80 71 82 83
b 81 71 83 84
b 82 71 84 85
b 83 71 85 86
b 84 71 86 87
b 85 71 87 88
b 86 71 88 89
b 87 71 89 90
b 88 71 90 92
b 89 91 102 1344
b 90 71 92 93
b 91 71 93 94
b 92 71 94 95
b 93 71 95 96
b 94 71 96 97
b 95 71 97 98
b 96 71 98 99
b 97 71 99 100
b 98 71 100 101
b 99 71 101 103
b 100 102 114 1344
b 101 71 103 104
b 102 71 104 105
b 103 71 105 106
b 104 71 106 107
b 105 71 107 108
b 106 71 108 109
b 107 71 109 110
b 108 71 110 111
b 109 71 111 112
b 110 71 112 115
b 111 114 125 1344
b 112 71 115 116
b 113 71 116 117
b 114 71 117 118
b 115 71 118 119
b 116 71 119 120
b 117 71 120 121
b 118 71 121 122
b 119 71 122 123
b 120 71 123 124
b 121 71 124 126
b 122 125 136 1344
b 123 71 126 127
b 124 71 127 128
b 125 71 128 129
b 126 71 129 130
b 127 71 130 131
b 128 71 131 132
b 129 71 132 133
b 130 71 133 134
b 131 71 134 135
b 132 71 135 137
b 133 71 137 138
b 134 71 138 139
b 135 71 139 140
b 136 71 140 141
b 137 71 141 142
b 138 71 142 143
b 139 71 143 144
b 140 71 144 145
b 141 71 145 146
b 142 71 146 148
b 143 71 148 149
b 144 71 149 150
b 145 70 71 150
b 146 70 150 151
b 147 33 70 151
b 148 33 151 152
b 149 32 33 152
b 150 32 152 153
b 151 32 153 154
b 152 32 154 155
b 153 32 155 156
b 154 32 156 157
b 155 165 166 167
b 156 165 167 168
b 157 158 169 180
b 158 171 172 173
b 159 175 176 177
b 160 175 177 178
b 161 158 180 191
b 162 182 183 184
b 163 182 184 185
b 164 182 185 186
b 165 182 186 187
b 166 182 187 188
b 167 182 188 189
b 168 182 189 190
b 169 182 190 192
b 170 182 192 193
b 171 181 182 193
b 172 181 193 194
b 173 179 181 194
b 174 179 194 195
b 175 178 179 195
b 176 178 195 196
b 177 175 178 196
b 178 175 196 197
b 179 175 197 198
b 180 175 198 199
b 181 174 175 199
b 182 174 199 200
b 183 173 174 200
b 184 173 200 201
b 185 171 173 201
b 186 171 201 203
b 187 171 203 204
b 188 171 204 205
b 189 171 205 206
b 190 171 206 207
b 191 171 207 208
b 192 171 208 209
b 193 171 209 210
b 194 171 210 211
b 195 171 211 212
b 196 171 212 214
b 197 171 214 215
b 198 171 215 216
b 199 171 216 217
b 200 171 217 218
b 201 171 218 219
b 202 171 219 220
b 203 171 220 221
b 204 171 221 222
b 205 171 222 223
b 206 171 223 226
b 207 213 225 236
b 208 171 226 227
b 209 171 227 228
b 210 171 228 229
b 211 171 229 230
b 212 171 230 231
b 213 171 231 232
b 214 171 232 233
b 215 171 233 234
b 216 171 234 235
b 217 171 235 237
b 218 213 236 247
b 219 171 237 238
b 220 171 238 239
b 221 171 239 240
b 222 171 240 241
b 223 171 241 242
b 224 171 242 243
b 225 171 243 244
b 226 171 244 245
b 227 171 245 246
b 228 171 246 248
b 229 213 247 258
b 230 171 248 249
b 231 171 249 250
b 232 171 250 251
b 233 171 251 252
b 234 171 252 253
b 235 171 253 254
b 236 171 254 255
b 237 171 255 256
b 238 171 256 257
b 239 171 257 259
b 240 213 258 269
b 241 171 259 260
b 242 171 260 261
b 243 170 171 261
b 244 170 261 262
b 245 168 170 262
b 246 168 262 263
b 247 266 267 268
b 248 266 268 270
b 249 213 269 280
b 250 277 278 279
b 251 277 279 281
b 252 284 285 286
b 253 284 286 287
b 254 284 287 288
b 255 280 291 302
b 256 290 292 293
b 257 290 293 294
b 258 290 294 295
b 259 290 295 296
b 260 290 296 297
b 261 290 297 298
b 262 290 298 299
b 263 290 299 300
b 264 290 300 301
b 265 280 302 313
b 266 306 307 308
b 267 306 308 309
b 268 306 309 310
b 269 306 310 311
b 270 306 311 312
b 271 306 312 314
b 272 306 314 315
b 273 306 315 316
b 274 306 316 317
b 275 306 317 318
b 276 306 318 319
b 277 327 328 329
b 278 327 329 330
b 279 327 330 331
b 280 327 331 332
b 281 327 332 333
b 282 327 333 334
b 283 327 334 337
b 284 324 336 347
b 285 327 337 338
b 286 327 338 339
b 287 327 339 340
b 288 327 340 341
b 289 327 341 342
b 290 345 346 348
b 291 345 348 349
b 292 345 349 350
b 293 345 350 351
b 294 345 351 352
b 295 345 352 353
b 296 345 353 354
b 297 345 354 355
b 298 345 355 356
b 299 345 356 357
b 300 345 357 359
b 301 345 359 360
b 302 345 360 361
b 303 345 361 362
b 304 345 362 363
b 305 345 363 364
b 306 345 364 365
b 307 345 365 366
b 308 345 366 367
b 309 344 345 367
b 310 344 367 368
b 311 343 344 368
b 312 343 368 370
b 313 342 343 370
b 314 342 370 371
b 315 327 342 371
b 316 358 369 380
b 317 327 371 372
b 318 327 372 373
b 319 375 376 377
b 320 358 380 391
b 321 390 392 1022
b 322 390 1022 1133
b 323 389 390 1133
b 324 389 1133 1244
b 325 388 389 1244
b 326 2 388 1244
b 327 2 113 388
b 328 113 387 388
b 329 113 224 387
b 330 224 386 387
b 331 224 335 386
b 332 335 385 386
b 333 335 385 401
b 334 384 385 401
b 335 383 384 401
b 336 383 401 412
b 337 382 383 412
b 338 382 412 423
b 339 381 382 423
b 340 381 423 434
b 341 379 381 434
b 342 379 434 445
b 343 378 379 445
b 344 378 445 456
b 345 377 378 456
b 346 377 456 468
b 347 375 377 468
b 348 375 468 479
b 349 374 375 479
b 350 374 479 490
b 351 373 374 490
b 352 399 400 402
b 353 399 402 403
b 354 399 403 404
b 355 399 404 405
b 356 399 405 406
b 357 399 406 407
b 358 399 407 408
b 359 399 408 409
b 360 399 409 410
b 361 399 410 411
b 362 399 411 413
b 363 399 413 414
b 364 399 414 415
b 365 399 415 416
b 366 399 416 417
b 367 399 417 418
b 368 399 418 419
b 369 399 419 420
b 370 399 420 421
b 371 399 421 422
b 372 398 399 422
b 373 398 422 424
b 374 397 398 424
b 375 397 424 425
b 376 391 397 425
b 377 391 425 426
b 378 358 391 426
b 379 358 426 427
b 380 358 427 428
b 381 358 428 429
b 382 347 358 429
b 383 347 429 430
b 384 324 347 430
b 385 324 430 431
b 386 324 431 432
b 387 313 324 432
b 388 313 432 433
b 389 280 313 433
b 390 280 433 435
b 391 280 435 436
b 392 213 280 436
b 393 213 436 437
b 394 213 437 438
b 395 213 438 439
b 396 213 439 440
b 397 213 440 441
b 398 213 441 442
b 399 213 442 443
b 400 202 213 443
b 401 202 443 444
b 402 202 444 446
b 403 191 202 446
b 404 191 446 447
b 405 158 191 447
b 406 158 447 448
b 407 158 448 449
b 408 158 449 450
b 409 147 158 450
b 410 147 450 451
b 411 136 147 451
b 412 136 451 452
b 413 136 452 1344
b 414 452 453 1344
b 415 453 454 1344
b 416 457 458 459
b 417 460 461 462
b 418 462 463 464
b 419 462 464 465
b 420 462 465 466
b 421 471 472 473
b 422 473 474 475
b 423 473 475 476
b 424 473 476 477
b 425 473 477 478
b 426 473 478 480
b 427 473 480 481
b 428 473 481 482
b 429 473 482 483
b 430 473 483 484
b 431 473 484 485
b 432 473 485 486
b 433 473 486 487
b 434 473 487 488
b 435 473 488 489
b 436 473 489 491
b 437 373 490 501
b 438 473 491 492
b 439 473 492 493
b 440 473 493 494
b 441 473 494 495
b 442 473 495 496
b 443 473 496 497
b 444 473 497 498
b 445 473 498 499
b 446 473 499 500
b 447 473 500 502
b 448 373 501 512
b 449 473 502 503
b 450 473 503 504
b 451 473 504 505
b 452 473 505 506
b 453 473 506 507
b 454 473 507 508
b 455 473 508 509
b 456 471 473 509
b 457 471 509 510
b 458 470 471 510
b 459 470 510 511
b 460 470 511 513
b 461 469 470 513
b 462 469 513 514
b 463 466 469 514
b 464 466 514 515
b 465 462 466 515
b 466 373 512 523
b 467 462 515 516
b 468 462 516 517
b 469 460 462 517
b 470 460 517 518
b 471 460 518 519
b 472 459 460 519
b 473 459 519 520
b 474 457 459 520
b 475 457 520 521
b 476 457 521 522
b 477 455 457 522
b 478 455 522 524
b 479 454 455 524
b 480 454 524 525
b 481 454 525 1344
b 482 525 526 1344
b 483 526 527 1344
b 484 527 528 1344
b 485 528 529 1344
b 486 529 530 1344
b 487 535 536 537
b 488 535 537 538
b 489 535 538 539
b 490 535 539 540
b 491 535 540 541
b 492 535 541 542
b 493 535 542 543
b 494 535 543 544
b 495 535 544 546
b 496 535 546 547
b 497 535 547 548
b 498 535 548 549
b 499 535 549 550
b 500 535 550 551
b 501 535 551 552
b 502 535 552 553
b 503 535 553 554
b 504 535 554 555
b 505 535 555 557
b 506 535 557 558
b 507 535 558 559
b 508 535 559 560
b 509 535 560 561
b 510 535 561 562
b 511 535 562 563
b 512 535 563 564
b 513 535 564 565
b 514 535 565 566
b 515 535 566 568
b 516 535 568 569
b 517 535 569 570
b 518 535 570 571
b 519 535 571 572
b 520 533 535 572
b 521 533 572 573
b 522 532 533 573
b 523 532 573 574
b 524 531 532 574
b 525 531 574 575
b 526 530 531 575
b 527 530 575 576
b 528 530 576 1344
b 529 576 577 1344
b 530 577 580 1344
b 531 567 579 590
b 532 580 581 1344
b 533 581 582 1344
b 534 582 583 1344
b 535 583 584 1344
b 536 584 585 1344
b 537 585 586 1344
b 538 586 587 1344
b 539 587 588 1344
b 540 588 589 1344
b 541 589 591 1344
b 542 567 590 601
b 543 591 592 1344
b 544 592 593 1344
b 545 593 594 1344
b 546 594 595 1344
b 547 595 596 1344
b 548 596 597 1344
b 549 597 598 1344
b 550 598 599 1344
b 551 599 600 1344
b 552 600 602 1344
b 553 567 601 612
b 554 602 603 1344
b 555 603 604 1344
b 556 604 605 1344
b 557 605 606 1344
b 558 606 607 1344
b 559 607 608 1344
b 560 608 609 1344
b 561 609 610 1344
b 562 610 611 1344
b 563 611 613 1344
b 564 567 612 623
b 565 613 614 1344
b 566 614 615 1344
b 567 615 616 1344
b 568 616 617 1344
b 569 617 618 1344
b 570 618 619 1344
b 571 619 620 1344
b 572 620 621 1344
b 573 621 622 1344
b 574 622 624 1344
b 575 567 623 634
b 576 624 625 1344
b 577 625 626 1344
b 578 626 627 1344
b 579 627 628 1344
b 580 628 629 1344
b 581 629 630 1344
b 582 632 633 635
b 583 567 634 645
b 584 636 637 638
b 585 638 639 640
b 586 638 640 641
b 587 638 641 642
b 588 638 642 643
b 589 638 643 644
b 590 638 644 646
b 591 567 645 656
b 592 638 646 647
b 593 638 647 648
b 594 638 648 649
b 595 638 649 650
b 596 638 650 651
b 597 638 651 652
b 598 638 652 653
b 599 638 653 654
b 600 638 654 655
b 601 638 655 657
b 602 567 656 667
b 603 665 666 668
b 604 567 667 678
b 605 665 668 669
b 606 665 669 670
b 607 665 670 671
b 608 665 671 672
b 609 665 672 673
b 610 665 673 674
b 611 665 674 675
b 612 665 675 676
b 613 665 676 677
b 614 665 677 679
b 615 567 678 690
b 616 682 683 684
b 617 682 684 685
b 618 687 688 691
b 619 567 690 701
b 620 694 695 696
b 621 694 696 697
b 622 694 697 698
b 623 694 698 699
b 624 567 701 712
b 625 567 712 723
b 626 711 713 714
b 627 715 716 717
b 628 715 717 718
b 629 715 718 719
b 630 715 719 720
b 631 715 720 721
b 632 715 721 722
b 633 715 722 724
b 634 567 723 734
b 635 715 724 725
b 636 715 725 726
b 637 715 726 727
b 638 715 727 728
b 639 715 728 729
b 640 715 729 730
b 641 715 730 731
b 642 715 731 732
b 643 715 732 733
b 644 715 733 735
b 645 567 734 745
b 646 715 735 736
b 647 715 736 737
b 648 715 737 738
b 649 715 738 739
b 650 715 739 740
b 651 715 740 741
b 652 567 745 756
b 653 744 746 747
b 654 744 747 748
b 655 744 748 749
b 656 744 749 750
b 657 744 750 751
b 658 744 751 752
b 659 744 752 753
b 660 744 753 754
b 661 744 754 755
b 662 744 755 757
b 663 567 756 767
b 664 744 757 758
b 665 744 758 759
b 666 744 759 760
b 667 744 760 761
b 668 744 761 762
b 669 744 762 763
b 670 744 763 764
b 671 744 764 765
b 672 744 765 766
b 673 744 766 768
b 674 567 767 778
b 675 744 768 769
b 676 744 769 770
b 677 744 770 771
b 678 744 771 772
b 679 744 772 773
b 680 744 773 774
b 681 744 774 775
b 682 744 775 776
b 683 744 776 777
b 684 744 777 779
b 685 744 779 780
b 686 744 780 781
b 687 744 781 782
b 688 744 782 783
b 689 744 783 784
b 690 744 784 785
b 691 744 785 786
b 692 743 744 786
b 693 743 786 787
b 694 742 743 787
b 695 742 787 788
b 696 741 742 788
b 697 741 788 790
b 698 715 741 790
b 699 715 790 791
b 700 715 791 792
b 701 715 792 793
b 702 715 793 794
b 703 715 794 795
b 704 715 795 796
b 705 715 796 797
b 706 715 797 798
b 707 715 798 799
b 708 715 799 802
b 709 715 802 803
b 710 715 803 804
b 711 715 804 805
b 712 715 805 806
b 713 715 806 807
b 714 715 807 808
b 715 814 815 816
b 716 814 816 817
b 717 814 817 818
b 718 814 818 819
b 719 814 819 820
b 720 814 820 821
b 721 814 821 822
b 722 814 822 824
b 723 814 824 825
b 724 814 825 826
b 725 829 830 831
b 726 829 831 832
b 727 829 832 833
b 728 829 833 835
b 729 823 834 845
b 730 829 835 836
b 731 829 836 837
b 732 829 837 838
b 733 829 838 839
b 734 829 839 840
b 735 829 840 841
b 736 829 841 842
b 737 829 842 843
b 738 829 843 844
b 739 823 845 856
b 740 847 848 849
b 741 847 849 850
b 742 847 850 851
b 743 847 851 852
b 744 847 852 853
b 745 823 856 867
b 746 857 858 859
b 747 857 859 860
b 748 857 860 861
b 749 857 861 862
b 750 857 862 863
b 751 857 863 864
b 752 857 864 865
b 753 857 865 866
b 754 857 866 868
b 755 823 867 878
b 756 870 871 872
b 757 870 872 873
b 758 870 873 874
b 759 870 874 875
b 760 870 875 876
b 761 823 878 889
b 762 880 881 882
b 763 880 882 883
b 764 880 883 884
b 765 880 884 885
b 766 880 885 886
b 767 880 886 887
b 768 880 887 888
b 769 880 888 890
b 770 823 889 900
b 771 880 890 891
b 772 880 891 892
b 773 880 892 893
b 774 880 893 894
b 775 880 894 895
b 776 880 895 896
b 777 880 896 897
b 778 880 897 898
b 779 880 898 899
b 780 880 899 901
b 781 823 900 912
b 782 880 901 902
b 783 880 902 903
b 784 880 903 904
b 785 880 904 905
b 786 880 905 906
b 787 880 906 907
b 788 880 907 908
b 789 880 908 909
b 790 880 909 910
b 791 880 910 913
b 792 823 912 923
b 793 880 913 914
b 794 880 914 915
b 795 880 915 916
b 796 880 916 917
b 797 880 917 918
b 798 880 918 919
b 799 880 919 920
b 800 880 920 921
b 801 880 921 922
b 802 880 922 924
b 803 823 923 934
b 804 880 924 925
b 805 880 925 926
b 806 880 926 927
b 807 880 927 928
b 808 880 928 929
b 809 880 929 930
b 810 880 930 931
b 811 880 931 932
b 812 880 932 933
b 813 880 933 935
b 814 823 934 945
b 815 940 941 942
b 816 940 942 943
b 817 940 943 944
b 818 940 944 946
b 819 823 945 956
b 820 823 956 967
b 821 812 823 967
b 822 812 967 978
b 823 801 812 978
b 824 801 978 989
b 825 789 801 989
b 826 789 989 1000
b 827 778 789 1000
b 828 778 1000 1011
b 829 567 778 1011
b 830 940 946 947
b 831 940 947 948
b 832 940 948 949
b 833 940 949 950
b 834 940 950 951
b 835 940 951 952
b 836 940 952 953
b 837 940 953 954
b 838 940 954 955
b 839 940 955 957
b 840 940 957 958
b 841 940 958 959
b 842 940 959 960
b 843 940 960 961
b 844 940 961 962
b 845 940 962 963
b 846 940 963 964
b 847 940 964 965
b 848 940 965 966
b 849 940 966 968
b 850 940 968 969
b 851 940 969 970
b 852 940 970 971
b 853 940 971 972
b 854 940 972 973
b 855 940 973 974
b 856 940 974 975
b 857 940 975 976
b 858 940 976 977
b 859 940 977 979
b 860 940 979 980
b 861 940 980 981
b 862 940 981 982
b 863 940 982 983
b 864 940 983 984
b 865 940 984 985
b 866 940 985 986
b 867 940 986 987
b 868 940 987 988
b 869 940 988 990
b 870 940 990 991
b 871 940 991 992
b 872 940 992 993
b 873 940 993 994
b 874 940 994 995
b 875 940 995 996
b 876 940 996 997
b 877 940 997 998
b 878 940 998 999
b 879 940 999 1001
b 880 940 1001 1002
b 881 940 1002 1003
b 882 940 1003 1004
b 883 940 1004 1005
b 884 940 1005 1006
b 885 940 1006 1007
b 886 940 1007 1008
b 887 940 1008 1009
b 888 940 1009 1010
b 889 940 1010 1012
b 890 567 1011 1023
b 891 940 1012 1013
b 892 940 1013 1014
b 893 940 1014 1015
b 894 940 1015 1016
b 895 940 1016 1017
b 896 940 1017 1018
b 897 940 1018 1019
b 898 940 1019 1020
b 899 940 1020 1021
b 900 940 1021 1024
b 901 567 1023 1034
b 902 940 1024 1025
b 903 940 1025 1026
b 904 940 1026 1027
b 905 940 1027 1028
b 906 940 1028 1029
b 907 940 1029 1030
b 908 940 1030 1031
b 909 940 1031 1032
b 910 940 1032 1033
b 911 940 1033 1035
b 912 567 1034 1045
b 913 567 1045 1056
b 914 556 567 1056
b 915 556 1056 1067
b 916 545 556 1067
b 917 545 1067 1078
b 918 534 545 1078
b 919 534 1078 1089
b 920 523 534 1089
b 921 523 1089 1100
b 922 373 523 1100
b 923 940 1035 1036
b 924 940 1036 1037
b 925 940 1037 1038
b 926 940 1038 1039
b 927 940 1039 1040
b 928 940 1040 1041
b 929 940 1041 1042
b 930 940 1042 1043
b 931 940 1043 1044
b 932 940 1044 1046
b 933 940 1046 1047
b 934 940 1047 1048
b 935 940 1048 1049
b 936 940 1049 1050
b 937 940 1050 1051
b 938 940 1051 1052
b 939 940 1052 1053
b 940 940 1053 1054
b 941 940 1054 1055
b 942 940 1055 1057
b 943 940 1057 1058
b 944 940 1058 1059
b 945 940 1059 1060
b 946 940 1060 1061
b 947 1064 1065 1066
b 948 1064 1066 1068
b 949 1064 1068 1069
b 950 1064 1069 1070
b 951 1064 1070 1071
b 952 1064 1071 1072
b 953 1064 1072 1073
b 954 1064 1073 1074
b 955 1064 1074 1075
b 956 1064 1075 1076
b 957 1064 1076 1077
b 958 1064 1077 1079
b 959 1084 1085 1086
b 960 1084 1086 1087
b 961 1084 1087 1088
b 962 1084 1088 1090
b 963 1084 1090 1091
b 964 1084 1091 1092
b 965 1096 1097 1098
b 966 1096 1098 1099
b 967 1096 1099 1101
b 968 373 1100 1111
b 969 1096 1101 1102
b 970 1096 1102 1103
b 971 1096 1103 1104
b 972 1096 1104 1105
b 973 1096 1105 1106
b 974 1096 1106 1107
b 975 1096 1107 1108
b 976 373 1111 1122
b 977 1113 1114 1115
b 978 1113 1115 1116
b 979 1113 1116 1117
b 980 1113 1117 1118
b 981 1113 1118 1119
b 982 1113 1119 1120
b 983 1113 1120 1121
b 984 1113 1121 1123
b 985 373 1122 1134
b 986 1113 1123 1124
b 987 1113 1124 1125
b 988 1113 1125 1126
b 989 1113 1126 1127
b 990 1113 1127 1128
b 991 1113 1128 1129
b 992 1113 1129 1130
b 993 1113 1130 1131
b 994 1113 1131 1132
b 995 1113 1132 1135
b 996 1112 1113 1135
b 997 1112 1135 1136
b 998 1110 1112 1136
b 999 1110 1136 1137
b 1000 1109 1110 1137
b 1001 1109 1137 1138
b 1002 1108 1109 1138
b 1003 1108 1138 1139
b 1004 1096 1108 1139
b 1005 373 1134 1145
b 1006 1096 1139 1140
b 1007 1096 1140 1141
b 1008 1096 1141 1142
b 1009 1096 1142 1143
b 1010 1096 1143 1144
b 1011 1096 1144 1146
b 1012 1096 1146 1147
b 1013 1096 1147 1148
b 1014 1096 1148 1149
b 1015 1157 1158 1159
b 1016 1157 1159 1160
b 1017 1157 1160 1161
b 1018 1157 1161 1162
b 1019 1157 1162 1163
b 1020 1166 1168 1169
b 1021 1166 1169 1170
b 1022 1166 1170 1171
b 1023 1171 1172 1173
b 1024 1171 1173 1174
b 1025 1171 1174 1175
b 1026 1171 1175 1176
b 1027 1171 1176 1177
b 1028 1171 1177 1179
b 1029 1171 1179 1180
b 1030 1171 1180 1181
b 1031 1171 1181 1182
b 1032 1187 1188 1190
b 1033 1178 1189 1200
b 1034 1187 1190 1191
b 1035 1187 1191 1192
b 1036 1187 1192 1193
b 1037 1197 1198 1199
b 1038 1197 1199 1201
b 1039 1197 1201 1202
b 1040 1197 1202 1203
b 1041 1197 1203 1204
b 1042 1197 1204 1205
b 1043 1197 1205 1206
b 1044 1197 1206 1207
b 1045 1197 1207 1208
b 1046 1197 1208 1209
b 1047 1197 1209 1210
b 1048 1197 1210 1212
b 1049 1197 1212 1213
b 1050 1197 1213 1214
b 1051 1197 1214 1215
b 1052 1197 1215 1216
b 1053 1197 1216 1217
b 1054 1197 1217 1218
b 1055 1197 1218 1219
b 1056 1197 1219 1220
b 1057 1197 1220 1221
b 1058 1197 1221 1223
b 1059 1211 1222 1233
b 1060 1197 1223 1224
b 1061 1197 1224 1225
b 1062 1197 1225 1226
b 1063 1197 1226 1227
b 1064 1197 1227 1228
b 1065 1197 1228 1229
b 1066 1197 1229 1230
b 1067 1197 1230 1231
b 1068 1197 1231 1232
b 1069 1197 1232 1234
b 1070 1211 1233 1245
b 1071 1197 1234 1235
b 1072 1197 1235 1236
b 1073 1197 1236 1237
b 1074 1197 1237 1238
b 1075 1197 1238 1239
b 1076 1197 1239 1240
b 1077 1197 1240 1241
b 1078 1197 1241 1242
b 1079 1197 1242 1243
b 1080 1197 1243 1246
b 1081 1211 1245 1256
b 1082 1197 1246 1247
b 1083 1197 1247 1248
b 1084 1197 1248 1249
b 1085 1197 1249 1250
b 1086 1197 1250 1251
b 1087 1197 1251 1252
b 1088 1197 1252 1253
b 1089 1197 1253 1254
b 1090 1197 1254 1255
b 1091 1197 1255 1257
b 1092 1211 1256 1267
b 1093 1197 1257 1258
b 1094 1197 1258 1259
b 1095 1197 1259 1260
b 1096 1197 1260 1261
b 1097 1197 1261 1262
b 1098 1197 1262 1263
b 1099 1197 1263 1264
b 1100 1197 1264 1265
b 1101 1197 1265 1266
b 1102 1197 1266 1268
b 1103 1211 1267 1278
b 1104 1197 1268 1269
b 1105 1197 1269 1270
b 1106 1197 1270 1271
b 1107 1197 1271 1272
b 1108 1197 1272 1273
b 1109 1197 1273 1274
b 1110 1197 1274 1275
b 1111 1197 1275 1276
b 1112 1197 1276 1277
b 1113 1197 1277 1279
b 1114 1211 1278 1289
b 1115 1197 1279 1280
b 1116 1197 1280 1281
b 1117 1197 1281 1282
b 1118 1197 1282 1283
b 1119 1197 1283 1284
b 1120 1197 1284 1285
b 1121 1197 1285 1286
b 1122 1197 1286 1287
b 1123 1197 1287 1288
b 1124 1197 1288 1290
b 1125 1211 1289 1300
b 1126 1197 1290 1291
b 1127 1197 1291 1292
b 1128 1197 1292 1293
b 1129 1197 1293 1294
b 1130 1297 1298 1299
b 1131 1297 1299 1301
b 1132 1211 1300 1311
b 1133 1297 1301 1302
b 1134 1297 1302 1303
b 1135 1297 1303 1304
b 1136 1297 1304 1305
b 1137 1297 1305 1306
b 1138 1297 1306 1307
b 1139 1297 1307 1308
b 1140 1297 1308 1309
b 1141 1297 1309 1310
b 1142 1297 1310 1312
b 1143 1211 1311 1322
b 1144 1297 1312 1313
b 1145 1297 1313 1314
b 1146 1297 1314 1315
b 1147 1297 1315 1316
b 1148 1297 1316 1317
b 1149 1297 1317 1318
b 1150 1297 1318 1319
b 1151 1297 1319 1320
b 1152 1297 1320 1321
b 1153 1211 1322 1333
b 1154 1327 1328 1329
b 1155 1327 1329 1330
b 1156 1327 1330 1331
b 1157 1327 1331 1332
b 1158 1327 1332 1334
b 1159 1211 1333 1344
b 1160 630 1211 1344
b 1161 630 631 1211
b 1162 631 1200 1211
b 1163 631 632 1200
b 1164 632 1178 1200
b 1165 632 635 1178
b 1166 635 1167 1178
b 1167 635 636 1167
b 1168 636 1156 1167
b 1169 636 638 1156
b 1170 638 1145 1156
b 1171 638 657 1145
b 1172 373 657 1145
b 1173 327 373 657
b 1174 327 657 658
b 1175 326 327 658
b 1176 326 658 659
b 1177 325 326 659
b 1178 325 659 660
b 1179 323 325 660
b 1180 323 660 661
b 1181 322 323 661
b 1182 322 661 662
b 1183 321 322 662
b 1184 321 662 663
b 1185 320 321 663
b 1186 320 663 664
b 1187 319 320 664
b 1188 319 664 665
b 1189 306 319 665
b 1190 306 665 679
b 1191 305 306 679
b 1192 305 679 680
b 1193 304 305 680
b 1194 304 680 681
b 1195 303 304 681
b 1196 303 681 682
b 1197 301 303 682
b 1198 301 682 685
b 1199 290 301 685
b 1200 290 685 686
b 1201 289 290 686
b 1202 289 686 687
b 1203 288 289 687
b 1204 288 687 691
b 1205 1327 1334 1335
b 1206 1327 1335 1336
b 1207 1327 1336 1337
b 1208 1337 1338 1339
b 1209 1337 1339 1340
b 1210 1341 1342 1343
b 1211 1346 1347 1348
b 1212 1346 1348 1349
b 1213 1346 1349 1350
b 1214 1346 1350 1351
b 1215 1346 1351 1352
b 1216 1346 1352 1353
b 1217 1346 1353 1354
b 1218 23 1346 1354
b 1219 23 24 1346
b 1220 24 1345 1346
b 1221 24 27 1345
b 1222 27 1343 1345
b 1223 27 28 1343
b 1224 28 1341 1343
b 1225 28 30 1341
b 1226 30 1340 1341
b 1227 30 31 282 288 1197 1321
b 1228 31 157 282 1197 1321
b 1229 31 32 157 282
b 1230 157 277 282 1197 1321
b 1231 157 160 277 1197 1321
b 1232 157 159 160 277
b 1233 160 275 277 1197 1321
b 1234 160 162 275 1197 1321
b 1235 160 161 162 275
b 1236 162 273 275 1197 1321
b 1237 162 164 273 1197 1321
b 1238 162 163 164 273
b 1239 164 271 273 1197 1321
b 1240 164 168 271 1197 1321
b 1241 164 165 168 271
b 1242 168 266 271 1197 1321
b 1243 168 266 1197 1295 1321
b 1244 168 264 266 1295 1321
b 1245 168 264 1295 1297 1321
b 1246 168 263 264 1297
b 1247 264 1295 1296 1297
b 1248 264 265 266 1295
b 1249 266 1197 1294 1295
b 1250 168 266 270 271
b 1251 164 271 272 273
b 1252 162 273 274 275
b 1253 160 275 276 277
b 1254 157 277 281 282
b 1255 30 31 282 284 288
b 1256 31 282 283 284
b 1257 30 288 1171 1193 1197 1321
b 1258 288 1166 1171 1193 1197
b 1259 288 692 1166 1193 1197
b 1260 288 691 692 1166
b 1261 692 1164 1166 1193 1197
b 1262 692 694 1164 1193 1197
b 1263 692 693 694 1164
b 1264 694 1157 1164 1193 1197
b 1265 694 700 1157 1193 1197
b 1266 694 699 700 1157
b 1267 700 1154 1157 1193 1197
b 1268 700 703 1154 1193 1197
b 1269 700 702 703 1154
b 1270 703 1152 1154 1193 1197
b 1271 703 705 1152 1193 1197
b 1272 703 704 705 1152
b 1273 705 1150 1152 1193 1197
b 1274 705 707 1150 1193 1197
b 1275 705 706 707 1150
b 1276 707 1095 1150 1193 1197
b 1277 707 1093 1095 1193 1197
b 1278 707 1092 1093 1197
b 1279 707 708 1092
b 1280 1093 1095 1193 1195 1197
b 1281 1093 1094 1095 1195
b 1282 1095 1193 1194 1195
b 1283 1093 1195 1196 1197
b 1284 707 1095 1149 1150 1193
b 1285 1095 1096 1149 1193
b 1286 705 1150 1151 1152
b 1287 703 1152 1153 1154
b 1288 700 1154 1155 1157
b 1289 694 1157 1163 1164
b 1290 692 1164 1165 1166
b 1291 30 288 1171 1193 1321 1340
b 1292 1171 1193 1321 1327 1340
b 1293 1171 1183 1193 1321 1327
b 1294 1171 1182 1183 1327
b 1295 1183 1193 1321 1325 1327
b 1296 1183 1185 1193 1321 1325
b 1297 1183 1184 1185 1325
b 1298 1185 1193 1321 1323 1325
b 1299 1185 1187 1193 1321 1323
b 1300 1185 1186 1187 1323
b 1301 1185 1323 1324 1325
b 1302 1183 1325 1326 1327
b 1303 1171 1327 1337 1340
b 1304 708 709 710 1083
b 1305 708 710 714 1081 1083
b 1306 708 714 1079 1081 1083
b 1307 708 714 808 1079 1083
b 1308 708 808 1079 1083 1092
b 1309 708 808 1079 1092
b 1310 708 1083 1084 1092
b 1311 714 715 808 1079
b 1312 714 1079 1080 1081
b 1313 710 1081 1082 1083
b 1314 710 711 714 1081
b 1315 808 809 810 939
b 1316 808 810 813 937 939
b 1317 808 813 935 937 939
b 1318 808 813 826 935 939
b 1319 808 826 879 935 939
b 1320 808 826 828 879 939
b 1321 808 828 876 879 939
b 1322 808 828 844 876 939
b 1323 808 844 869 876 939
b 1324 808 844 847 869 939
b 1325 808 847 857 869 939
b 1326 808 847 857 939 1061
b 1327 808 847 853 857 1061
b 1328 808 853 855 857 1061
b 1329 808 853 855 1061 1063
b 1330 808 853 1063 1064
b 1331 853 854 855 1063
b 1332 855 1061 1062 1063
b 1333 808 939 940 1061
b 1334 847 857 868 869
b 1335 844 846 847 869
b 1336 844 869 870 876
b 1337 828 829 844 876
b 1338 828 876 877 879
b 1339 826 827 828 879
b 1340 826 879 880 935
b 1341 813 814 826 935
b 1342 813 935 936 937
b 1343 810 937 938 939
b 1344 810 811 813 937
b 1345 808 1064 1079
1 6
2 3
3 4
4 5
5 321
6 7
7 8
8 9
9 10
10 322
11 22
12 13
13 14
14 15
15 16
16 17
17 18
18 19
19 20
20 21
21 23
22 31
23 24
24 25
25 26
26 27
27 28
28 29
29 30
30 1218
31 36
32 1221
33 1225
34 35
35 37
36 47
37 38
38 39
39 40
40 41
41 42
42 43
43 44
44 45
45 46
46 48
47 58
48 49
49 50
50 51
51 52
52 53
53 54
54 55
55 56
56 57
57 59
58 69
59 60
60 61
61 62
62 63
63 64
64 65
65 66
66 67
67 68
68 147
69 78
70 71
71 72
72 73
73 74
74 75
75 76
76 77
77 79
78 89
79 80
80 81
81 82
82 83
83 84
84 85
85 86
86 87
87 88
88 90
89 100
90 91
91 92
92 93
93 94
94 95
95 96
96 97
97 98
98 99
99 101
100 111
101 102
102 103
103 104
104 105
105 106
106 107
107 108
108 109
109 110
110 112
111 122
112 113
113 114
114 115
115 116
116 117
117 118
118 119
119 120
120 121
121 123
122 413
123 124
124 125
125 126
126 127
127 128
128 129
129 130
130 131
131 132
132 133
133 134
134 135
135 136
136 137
137 138
138 139
139 140
140 141
141 142
142 143
143 144
144 145
145 146
146 147
147 148
148 149
149 150
150 151
151 152
152 153
153 154
154 1229
155 156
156 1241
157 161
158 185
159 160
160 177
161 405
162 163
163 164
164 165
165 166
166 167
167 168
168 169
169 170
170 171
171 172
172 173
173 174
174 175
175 176
176 177
177 178
178 179
179 180
180 181
181 182
182 183
183 184
184 185
185 186
186 187
187 188
188 189
189 190
190 191
191 192
192 193
193 194
194 195
195 196
196 197
197 198
198 199
199 200
200 201
201 202
202 203
203 204
204 205
205 206
206 208
207 218
208 209
209 210
210 211
211 212
212 213
213 214
214 215
215 216
216 217
217 219
218 229
219 220
220 221
221 222
222 223
223 224
224 225
225 226
226 227
227 228
228 230
229 240
230 231
231 232
232 233
233 234
234 235
235 236
236 237
237 238
238 239
239 241
240 249
241 242
242 243
243 244
244 245
245 246
246 1246
247 248
248 1250
249 392
250 251
251 1254
252 253
253 254
254 1255
255 265
256 257
257 258
258 259
259 260
260 261
261 262
262 263
263 264
264 1199
265 389
266 267
267 268
268 269
269 270
270 271
271 272
272 273
273 274
274 275
275 276
276 1189
277 278
278 279
279 280
280 281
281 282
282 283
283 285
284 384
285 286
286 287
287 288
288 289
289 315
290 291
291 292
292 293
293 294
294 295
295 296
296 297
297 298
298 299
299 300
300 301
301 302
302 303
303 304
304 305
305 306
306 307
307 308
308 309
309 310
310 311
311 312
312 313
313 314
314 315
315 317
316 320
317 318
318 1173
319 347
320 378
321 322
322 323
323 324
324 325
325 326
326 327
327 328
328 329
329 330
330 331
331 332
332 333
333 334
334 335
335 336
336 337
337 338
338 339
339 340
340 341
341 342
342 343
343 344
344 345
345 346
346 347
347 348
348 349
349 350
350 351
351 437
352 353
353 354
354 355
355 356
356 357
357 358
358 359
359 360
360 361
361 362
362 363
363 364
364 365
365 366
366 367
367 368
368 369
369 370
370 371
371 372
372 373
373 374
374 375
375 376
376 377
377 378
378 379
379 380
380 381
381 382
382 383
383 384
384 385
385 386
386 387
387 388
388 389
389 390
390 391
391 392
392 393
393 394
394 395
395 396
396 397
397 398
398 399
399 400
400 401
401 402
402 403
403 404
404 405
405 406
406 407
407 408
408 409
409 410
410 411
411 412
412 413
413 414
414 415
415 481
416 474
417 469
418 419
419 420
420 465
421 456
422 423
423 424
424 425
425 426
426 427
427 428
428 429
429 430
430 431
431 432
432 433
433 434
434 435
435 436
436 438
437 448
438 439
439 440
440 441
441 442
442 443
443 444
444 445
445 446
446 447
447 449
448 466
449 450
450 451
451 452
452 453
453 454
454 455
455 456
456 457
457 458
458 459
459 460
460 461
461 462
462 463
463 464
464 465
465 467
466 922
467 468
468 469
469 470
470 471
471 472
472 473
473 474
474 475
475 476
476 477
477 478
478 479
479 480
480 481
481 482
482 483
483 484
484 485
485 486
486 528
487 488
488 489
489 490
490 491
491 492
492 493
493 494
494 495
495 496
496 497
497 498
498 499
499 500
500 501
501 502
502 503
503 504
504 505
505 506
506 507
507 508
508 509
509 510
510 511
511 512
512 513
513 514
514 515
515 516
516 517
517 518
518 519
519 520
520 521
521 522
522 523
523 524
524 525
525 526
526 527
527 528
528 529
529 530
530 532
531 542
532 533
533 534
534 535
535 536
536 537
537 538
538 539
539 540
540 541
541 543
542 553
543 544
544 545
545 546
546 547
547 548
548 549
549 550
550 551
551 552
552 554
553 564
554 555
555 556
556 557
557 558
558 559
559 560
560 561
561 562
562 563
563 565
564 575
565 566
566 567
567 568
568 569
569 570
570 571
571 572
572 573
573 574
574 576
575 583
576 577
577 578
578 579
579 580
580 581
581 1160
582 1165
583 591
584 1169
585 586
586 587
587 588
588 589
589 590
590 592
591 602
592 593
593 594
594 595
595 596
596 597
597 598
598 599
599 600
600 601
601 1171
602 604
603 605
604 615
605 606
606 607
607 608
608 609
609 610
610 611
611 612
612 613
613 614
614 1190
615 619
616 617
617 1198
618 1204
619 624
620 621
621 622
622 623
623 1266
624 625
625 634
626 1314
627 628
628 629
629 630
630 631
631 632
632 633
633 635
634 645
635 636
636 637
637 638
638 639
639 640
640 641
641 642
642 643
643 644
644 646
645 652
646 647
647 648
648 649
649 650
650 651
651 698
652 663
653 654
654 655
655 656
656 657
657 658
658 659
659 660
660 661
661 662
662 664
663 674
664 665
665 666
666 667
667 668
668 669
669 670
670 671
671 672
672 673
673 675
674 829
675 676
676 677
677 678
678 679
679 680
680 681
681 682
682 683
683 684
684 685
685 686
686 687
687 688
688 689
689 690
690 691
691 692
692 693
693 694
694 695
695 696
696 697
697 698
698 699
699 700
700 701
701 702
702 703
703 704
704 705
705 706
706 707
707 708
708 709
709 710
710 711
711 712
712 713
713 714
714 1311
715 716
716 717
717 718
718 719
719 720
720 721
721 722
722 723
723 724
724 1341
725 726
726 727
727 728
728 730
729 739
730 731
731 732
732 733
733 734
734 735
735 736
736 737
737 738
738 1337
739 745
740 741
741 742
742 743
743 744
744 1327
745 755
746 747
747 748
748 749
749 750
750 751
751 752
752 753
753 754
754 1334
755 761
756 757
757 758
758 759
759 760
760 1336
761 770
762 763
763 764
764 765
765 766
766 767
767 768
768 769
769 771
770 781
771 772
772 773
773 774
774 775
775 776
776 777
777 778
778 779
779 780
780 782
781 792
782 783
783 784
784 785
785 786
786 787
787 788
788 789
789 790
790 791
791 793
792 803
793 794
794 795
795 796
796 797
797 798
798 799
799 800
800 801
801 802
802 804
803 814
804 805
805 806
806 807
807 808
808 809
809 810
810 811
811 812
812 813
813 1340
814 819
815 816
816 817
817 818
818 830
819 820
820 821
821 822
822 823
823 824
824 825
825 826
826 827
827 828
828 829
829 890
830 831
831 832
832 833
833 834
834 835
835 836
836 837
837 838
838 839
839 840
840 841
841 842
842 843
843 844
844 845
845 846
846 847
847 848
848 849
849 850
850 851
851 852
852 853
853 854
854 855
855 856
856 857
857 858
858 859
859 860
860 861
861 862
862 863
863 864
864 865
865 866
866 867
867 868
868 869
869 870
870 871
871 872
872 873
873 874
874 875
875 876
876 877
877 878
878 879
879 880
880 881
881 882
882 883
883 884
884 885
885 886
886 887
887 888
888 889
889 891
890 901
891 892
892 893
893 894
894 895
895 896
896 897
897 898
898 899
899 900
900 902
901 912
902 903
903 904
904 905
905 906
906 907
907 908
908 909
909 910
910 911
911 923
912 913
913 914
914 915
915 916
916 917
917 918
918 919
919 920
920 921
921 922
922 968
923 924
924 925
925 926
926 927
927 928
928 929
929 930
930 931
931 932
932 933
933 934
934 935
935 936
936 937
937 938
938 939
939 940
940 941
941 942
942 943
943 944
944 945
945 946
946 1333
947 948
948 949
949 950
950 951
951 952
952 953
953 954
954 955
955 956
956 957
957 958
958 1345
959 960
960 961
961 962
962 963
963 964
964 1310
965 966
966 967
967 969
968 976
969 970
970 971
971 972
972 973
973 974
974 975
975 1004
976 985
977 978
978 979
979 980
980 981
981 982
982 983
983 984
984 986
985 1005
986 987
987 988
988 989
989 990
990 991
991 992
992 993
993 994
994 995
995 996
996 997
997 998
998 999
999 1000
1000 1001
1001 1002
1002 1003
1003 1004
1004 1006
1005 1172
1006 1007
1007 1008
1008 1009
1009 1010
1010 1011
1011 1012
1012 1013
1013 1014
1014 1285
1015 1016
1016 1017
1017 1018
1018 1019
1019 1289
1020 1021
1021 1022
1022 1258
1023 1024
1024 1025
1025 1026
1026 1027
1027 1028
1028 1029
1029 1030
1030 1031
1031 1294
1032 1034
1033 1164
1034 1035
1035 1036
1036 1299
1037 1038
1038 1039
1039 1040
1040 1041
1041 1042
1042 1043
1043 1044
1044 1045
1045 1046
1046 1047
1047 1048
1048 1049
1049 1050
1050 1051
1051 1052
1052 1053
1053 1054
1054 1055
1055 1056
1056 1057
1057 1058
1058 1060
1059 1070
1060 1061
1061 1062
1062 1063
1063 1064
1064 1065
1065 1066
1066 1067
1067 1068
1068 1069
1069 1071
1070 1081
1071 1072
1072 1073
1073 1074
1074 1075
1075 1076
1076 1077
1077 1078
1078 1079
1079 1080
1080 1082
1081 1092
1082 1083
1083 1084
1084 1085
1085 1086
1086 1087
1087 1088
1088 1089
1089 1090
1090 1091
1091 1093
1092 1103
1093 1094
1094 1095
1095 1096
1096 1097
1097 1098
1098 1099
1099 1100
1100 1101
1101 1102
1102 1104
1103 1114
1104 1105
1105 1106
1106 1107
1107 1108
1108 1109
1109 1110
1110 1111
1111 1112
1112 1113
1113 1115
1114 1125
1115 1116
1116 1117
1117 1118
1118 1119
1119 1120
1120 1121
1121 1122
1122 1123
1123 1124
1124 1126
1125 1132
1126 1127
1127 1128
1128 1129
1129 1249
1130 1131
1131 1133
1132 1143
1133 1134
1134 1135
1135 1136
1136 1137
1137 1138
1138 1139
1139 1140
1140 1141
1141 1142
1142 1144
1143 1153
1144 1145
1145 1146
1146 1147
1147 1148
1148 1149
1149 1150
1150 1151
1151 1152
1152 1245
1153 1159
1154 1155
1155 1156
1156 1157
1157 1158
1158 1205
1159 1160
1160 1161
1161 1162
1162 1163
1163 1164
1164 1165
1165 1166
1166 1167
1167 1168
1168 1169
1169 1170
1170 1171
1171 1172
1172 1173
1173 1174
1174 1175
1175 1176
1176 1177
1177 1178
1178 1179
1179 1180
1180 1181
1181 1182
1182 1183
1183 1184
1184 1185
1185 1186
1186 1187
1187 1188
1188 1189
1189 1190
1190 1191
1191 1192
1192 1193
1193 1194
1194 1195
1195 1196
1196 1197
1197 1198
1198 1199
1199 1200
1200 1201
1201 1202
1202 1203
1203 1204
1204 1260
1205 1206
1206 1207
1207 1303
1208 1209
1209 1303
1210 1224
1211 1212
1212 1213
1213 1214
1214 1215
1215 1216
1216 1217
1217 1218
1218 1219
1219 1220
1220 1221
1221 1222
1222 1223
1223 1224
1224 1225
1225 1226
1226 1291
1227 1228
1227 1255
1227 1257
1228 1229
1228 1230
1230 1231
1230 1254
1231 1232
1231 1233
1233 1234
1233 1253
1234 1235
1234 1236
1236 1237
1236 1252
1237 1238
1237 1239
1239 1240
1239 1251
1240 1241
1240 1242
1242 1243
1242 1250
1243 1244
1243 1249
1244 1245
1244 1248
1245 1246
1245 1247
1255 1256
1257 1258
1257 1291
1258 1259
1259 1260
1259 1261
1261 1262
1261 1290
1262 1263
1262 1264
1264 1265
1264 1289
1265 1266
1265 1267
1267 1268
1267 1288
1268 1269
1268 1270
1270 1271
1270 1287
1271 1272
1271 1273
1273 1274
1273 1286
1274 1275
1274 1276
1276 1277
1276 1284
1277 1278
1277 1280
1278 1279
1279 1308
1280 1281
1280 1282
1280 1283
1284 1285
1291 1292
1292 1293
1292 1303
1293 1294
1293 1295
1295 1296
1295 1302
1296 1297
1296 1298
1298 1299
1298 1301
1299 1300
1304 1305
1305 1313
1305 1314
1305 1306
1306 1312
1306 1307
1307 1345
1307 1311
1307 1308
1308 1310
1308 1309
1315 1316
1316 1343
1316 1344
1316 1317
1317 1342
1317 1318
1318 1341
1318 1319
1319 1340
1319 1320
1320 1339
1320 1321
1321 1338
1321 1322
1322 1337
1322 1323
1323 1336
1323 1324
1324 1335
1324 1325
1325 1334
1325 1326
1326 1333
1326 1327
1327 1328
1328 1329
1329 1331
1329 1332
1329 1330
1330 1345
